BAYES
324
2 2 2 2 2 2 2 2 2 2 2 2 2 2 2 2 2 2 2 2 2 2 2 2 2 2 2 2 2 2 2 2 2 2 2 2 2 2 2 2 2 2 2 2 2 2 2 2 2 2 2 2 2 2 2 2 2 2 2 2 2 2 2 2 2 2 2 2 2 2 2 2 2 2 2 2 2 2 2 2 2 2 2 2 2 2 2 2 2 2 2 2 2 2 2 2 2 2 2 2 2 2 2 2 2 2 2 2 2 2 2 2 2 2 2 2 2 2 2 2 2 2 2 2 2 2 2 2 2 2 2 2 2 2 2 2 2 2 2 2 2 2 2 2 2 2 2 2 2 2 2 2 2 2 2 2 2 2 2 2 2 2 2 2 2 2 2 2 2 2 2 2 2 2 2 2 2 2 2 2 2 2 2 2 2 2 2 2 2 2 2 2 2 2 2 2 2 2 2 2 2 2 2 2 2 2 2 2 2 2 2 2 2 2 2 2 2 2 2 2 2 2 2 2 2 2 2 2 2 2 2 2 2 2 2 2 2 2 2 2 2 2 2 2 2 2 2 2 2 2 2 2 2 2 2 2 2 2 2 2 2 2 2 2 2 2 2 2 2 2 2 2 2 2 2 2 2 2 2 2 2 2 2 2 2 2 2 2 2 2 2 2 2 2 2 2 2 2 2 2 2 2 2 2 2 2 2 2 2 2 2 2 2 2 2 2 2 2 2 2 2 2 2 2
324
3 1 18 0
3 2 19 1
3 3 20 2
3 4 21 3
3 5 22 4
3 6 23 5
3 7 24 6
3 8 25 7
3 9 26 8
3 10 27 9
3 11 28 10
3 12 29 11
3 13 30 12
3 14 31 13
3 15 32 14
3 16 33 15
3 17 34 16
2 18 17
3 19 36 18
3 20 37 19
3 21 38 20
3 22 39 21
3 23 40 22
3 24 41 23
3 25 42 24
3 26 43 25
3 27 44 26
3 28 45 27
3 29 46 28
3 30 47 29
3 31 48 30
3 32 49 31
3 33 50 32
3 34 51 33
3 35 52 34
2 36 35
3 37 54 36
3 38 55 37
3 39 56 38
3 40 57 39
3 41 58 40
3 42 59 41
3 43 60 42
3 44 61 43
3 45 62 44
3 46 63 45
3 47 64 46
3 48 65 47
3 49 66 48
3 50 67 49
3 51 68 50
3 52 69 51
3 53 70 52
2 54 53
3 55 72 54
3 56 73 55
3 57 74 56
3 58 75 57
3 59 76 58
3 60 77 59
3 61 78 60
3 62 79 61
3 63 80 62
3 64 81 63
3 65 82 64
3 66 83 65
3 67 84 66
3 68 85 67
3 69 86 68
3 70 87 69
3 71 88 70
2 72 71
3 73 90 72
3 74 91 73
3 75 92 74
3 76 93 75
3 77 94 76
3 78 95 77
3 79 96 78
3 80 97 79
3 81 98 80
3 82 99 81
3 83 100 82
3 84 101 83
3 85 102 84
3 86 103 85
3 87 104 86
3 88 105 87
3 89 106 88
2 90 89
3 91 108 90
3 92 109 91
3 93 110 92
3 94 111 93
3 95 112 94
3 96 113 95
3 97 114 96
3 98 115 97
3 99 116 98
3 100 117 99
3 101 118 100
3 102 119 101
3 103 120 102
3 104 121 103
3 105 122 104
3 106 123 105
3 107 124 106
2 108 107
3 109 126 108
3 110 127 109
3 111 128 110
3 112 129 111
3 113 130 112
3 114 131 113
3 115 132 114
3 116 133 115
3 117 134 116
3 118 135 117
3 119 136 118
3 120 137 119
3 121 138 120
3 122 139 121
3 123 140 122
3 124 141 123
3 125 142 124
2 126 125
3 127 144 126
3 128 145 127
3 129 146 128
3 130 147 129
3 131 148 130
3 132 149 131
3 133 150 132
3 134 151 133
3 135 152 134
3 136 153 135
3 137 154 136
3 138 155 137
3 139 156 138
3 140 157 139
3 141 158 140
3 142 159 141
3 143 160 142
2 144 143
3 145 162 144
3 146 163 145
3 147 164 146
3 148 165 147
3 149 166 148
3 150 167 149
3 151 168 150
3 152 169 151
3 153 170 152
3 154 171 153
3 155 172 154
3 156 173 155
3 157 174 156
3 158 175 157
3 159 176 158
3 160 177 159
3 161 178 160
2 162 161
3 163 180 162
3 164 181 163
3 165 182 164
3 166 183 165
3 167 184 166
3 168 185 167
3 169 186 168
3 170 187 169
3 171 188 170
3 172 189 171
3 173 190 172
3 174 191 173
3 175 192 174
3 176 193 175
3 177 194 176
3 178 195 177
3 179 196 178
2 180 179
3 181 198 180
3 182 199 181
3 183 200 182
3 184 201 183
3 185 202 184
3 186 203 185
3 187 204 186
3 188 205 187
3 189 206 188
3 190 207 189
3 191 208 190
3 192 209 191
3 193 210 192
3 194 211 193
3 195 212 194
3 196 213 195
3 197 214 196
2 198 197
3 199 216 198
3 200 217 199
3 201 218 200
3 202 219 201
3 203 220 202
3 204 221 203
3 205 222 204
3 206 223 205
3 207 224 206
3 208 225 207
3 209 226 208
3 210 227 209
3 211 228 210
3 212 229 211
3 213 230 212
3 214 231 213
3 215 232 214
2 216 215
3 217 234 216
3 218 235 217
3 219 236 218
3 220 237 219
3 221 238 220
3 222 239 221
3 223 240 222
3 224 241 223
3 225 242 224
3 226 243 225
3 227 244 226
3 228 245 227
3 229 246 228
3 230 247 229
3 231 248 230
3 232 249 231
3 233 250 232
2 234 233
3 235 252 234
3 236 253 235
3 237 254 236
3 238 255 237
3 239 256 238
3 240 257 239
3 241 258 240
3 242 259 241
3 243 260 242
3 244 261 243
3 245 262 244
3 246 263 245
3 247 264 246
3 248 265 247
3 249 266 248
3 250 267 249
3 251 268 250
2 252 251
3 253 270 252
3 254 271 253
3 255 272 254
3 256 273 255
3 257 274 256
3 258 275 257
3 259 276 258
3 260 277 259
3 261 278 260
3 262 279 261
3 263 280 262
3 264 281 263
3 265 282 264
3 266 283 265
3 267 284 266
3 268 285 267
3 269 286 268
2 270 269
3 271 288 270
3 272 289 271
3 273 290 272
3 274 291 273
3 275 292 274
3 276 293 275
3 277 294 276
3 278 295 277
3 279 296 278
3 280 297 279
3 281 298 280
3 282 299 281
3 283 300 282
3 284 301 283
3 285 302 284
3 286 303 285
3 287 304 286
2 288 287
3 289 306 288
3 290 307 289
3 291 308 290
3 292 309 291
3 293 310 292
3 294 311 293
3 295 312 294
3 296 313 295
3 297 314 296
3 298 315 297
3 299 316 298
3 300 317 299
3 301 318 300
3 302 319 301
3 303 320 302
3 304 321 303
3 305 322 304
2 306 305
2 324 306
2 325 307
2 326 308
2 327 309
2 328 310
2 329 311
2 330 312
2 331 313
2 332 314
2 333 315
2 334 316
2 335 317
2 336 318
2 337 319
2 338 320
2 339 321
2 340 322
1  323
8
0 1 1 0 0 1 0 1
8
0 1 1 0 0 1 1 0
8
1 0 0 1 1 0 0 1
8
0.04641375708351513 0.9535862429164849 0.921154028355665 0.07884597164433507 0.3453495632931546 0.6546504367068455 0.38118902357164053 0.6188109764283595
8
0.5249930305120596 0.4750069694879406 0.6344497265666759 0.365550273433324 0.726109581797371 0.273890418202629 0.688009316836412 0.31199068316358797
8
0 1 1 0 1 0 1 0
8
0 1 0 1 0 1 1 0
8
0.3017294378193135 0.6982705621806865 0.29276897175275063 0.7072310282472494 0.42275884004000114 0.577241159959999 0.4170632290234679 0.5829367709765321
8
1 0 1 0 0 1 0 1
8
0 1 0 1 0 1 0 1
8
1 0 0 1 0 1 0 1
8
1 0 1 0 1 0 1 0
8
0 1 0 1 0 1 0 1
8
1 0 0 1 1 0 0 1
8
1 0 0 1 1 0 1 0
8
1 0 1 0 0 1 0 1
8
1 0 0 1 1 0 1 0
4
1 0 0 1
8
0.2732018673325587 0.7267981326674414 0.07374423482336906 0.926255765176631 0.5292200320917545 0.4707799679082455 0.20955379762280887 0.7904462023771911
8
1 0 1 0 1 0 1 0
8
0 1 0 1 0 1 0 1
8
0 1 1 0 0 1 1 0
8
0.42623527136178085 0.5737647286382191 0.8666268959746639 0.1333731040253361 0.656324744026664 0.343675255973336 0.48365484220700755 0.5163451577929924
8
1 0 1 0 0 1 0 1
8
0 1 0 1 1 0 1 0
8
1 0 1 0 0 1 0 1
8
0.35179917728728227 0.6482008227127177 0.6361607650030804 0.36383923499691956 0.055117823222457715 0.9448821767775422 0.931570619506552 0.06842938049344803
8
0 1 0 1 0 1 1 0
8
1 0 1 0 1 0 0 1
8
1 0 0 1 0 1 1 0
8
1 0 1 0 1 0 1 0
8
1 0 0 1 1 0 1 0
8
0 1 1 0 0 1 0 1
8
1 0 1 0 1 0 0 1
8
0.6845316650480944 0.31546833495190557 0.6269253788660227 0.3730746211339772 0.8140104245327073 0.18598957546729264 0.6639434578045844 0.33605654219541564
4
0 1 0 1
8
0 1 0 1 0 1 0 1
8
1 0 0 1 1 0 0 1
8
0.876822662499388 0.12317733750061201 0.8648113895865366 0.1351886104134634 0.3817781415346329 0.618221858465367 0.16930429256938898 0.830695707430611
8
1 0 1 0 0 1 1 0
8
0 1 1 0 0 1 0 1
8
1 0 0 1 1 0 0 1
8
0 1 0 1 1 0 0 1
8
0 1 0 1 1 0 0 1
8
0 1 1 0 1 0 1 0
8
0 1 0 1 0 1 1 0
8
0 1 0 1 0 1 1 0
8
0 1 1 0 1 0 1 0
8
1 0 1 0 0 1 0 1
8
0 1 0 1 0 1 1 0
8
1 0 1 0 1 0 1 0
8
1 0 0 1 0 1 1 0
8
0 1 0 1 0 1 1 0
4
1 0 1 0
8
1 0 1 0 1 0 0 1
8
1 0 1 0 0 1 0 1
8
1 0 0 1 0 1 0 1
8
0.43634808371683714 0.5636519162831629 0.8075641547280641 0.19243584527193588 0.33091690904195975 0.6690830909580402 0.5546806483295076 0.44531935167049236
8
1 0 0 1 0 1 1 0
8
1 0 0 1 0 1 1 0
8
0 1 0 1 1 0 1 0
8
0 1 1 0 1 0 1 0
8
1 0 0 1 0 1 1 0
8
1 0 1 0 0 1 0 1
8
1 0 1 0 0 1 0 1
8
1 0 1 0 0 1 0 1
8
0 1 0 1 0 1 1 0
8
1 0 0 1 0 1 1 0
8
1 0 0 1 0 1 0 1
8
1 0 1 0 1 0 1 0
8
1 0 1 0 1 0 0 1
4
1 0 0 1
8
0 1 0 1 0 1 1 0
8
0 1 0 1 1 0 1 0
8
0 1 1 0 1 0 0 1
8
0.6648911162456869 0.3351088837543131 0.5761591343300191 0.4238408656699809 0.2574303327140792 0.7425696672859209 0.2895911164691864 0.7104088835308136
8
0 1 1 0 0 1 0 1
8
1 0 0 1 1 0 1 0
8
0 1 1 0 0 1 0 1
8
0 1 0 1 0 1 0 1
8
0.3718220425238041 0.628177957476196 0.4585011260193208 0.5414988739806792 0.49864333639397007 0.5013566636060299 0.43600719792951764 0.5639928020704823
8
1 0 0 1 1 0 1 0
8
1 0 1 0 1 0 1 0
8
1 0 0 1 1 0 0 1
8
0 1 1 0 1 0 1 0
8
0 1 1 0 1 0 0 1
8
1 0 0 1 1 0 1 0
8
1 0 0 1 0 1 0 1
8
0 1 1 0 0 1 0 1
4
0 1 0 1
8
0 1 1 0 1 0 1 0
8
1 0 1 0 1 0 1 0
8
1 0 1 0 0 1 0 1
8
0 1 0 1 1 0 0 1
8
0 1 0 1 0 1 1 0
8
1 0 0 1 1 0 1 0
8
0.21718312642745136 0.7828168735725487 0.7461135007829923 0.2538864992170077 0.08936341656508252 0.9106365834349175 0.5119016432661438 0.4880983567338561
8
1 0 0 1 1 0 1 0
8
1 0 0 1 1 0 0 1
8
1 0 1 0 1 0 0 1
8
0 1 1 0 0 1 0 1
8
0 1 1 0 0 1 0 1
8
1 0 0 1 1 0 1 0
8
1 0 1 0 1 0 0 1
8
0 1 1 0 1 0 1 0
8
1 0 1 0 0 1 0 1
8
1 0 1 0 0 1 1 0
4
0 1 0 1
8
0.35722051921967063 0.6427794807803295 0.2513803318645416 0.7486196681354583 0.6394087844685262 0.36059121553147383 0.6620024742116563 0.33799752578834374
8
1 0 0 1 0 1 0 1
8
1 0 1 0 0 1 0 1
8
1 0 1 0 1 0 0 1
8
0 1 0 1 0 1 1 0
8
0 1 1 0 1 0 0 1
8
0 1 0 1 0 1 0 1
8
0 1 1 0 0 1 1 0
8
0 1 1 0 1 0 0 1
8
0 1 0 1 1 0 1 0
8
0 1 1 0 1 0 0 1
8
1 0 1 0 0 1 1 0
8
0 1 0 1 0 1 0 1
8
0.591953139758798 0.40804686024120207 0.8001405063354743 0.19985949366452577 0.6885553088896226 0.3114446911103774 0.2370261100215104 0.7629738899784896
8
0.49896535306315076 0.5010346469368493 0.5389733379912689 0.4610266620087311 0.7121030700684862 0.2878969299315138 0.5104803780488668 0.48951962195113324
8
1 0 1 0 1 0 0 1
8
0 1 0 1 1 0 1 0
4
1 0 1 0
8
1 0 0 1 1 0 1 0
8
1 0 0 1 0 1 1 0
8
1 0 1 0 0 1 1 0
8
1 0 1 0 1 0 1 0
8
0 1 0 1 0 1 0 1
8
1 0 1 0 1 0 1 0
8
1 0 0 1 1 0 0 1
8
0 1 0 1 1 0 1 0
8
1 0 0 1 0 1 0 1
8
0 1 0 1 0 1 1 0
8
0 1 0 1 1 0 0 1
8
0 1 1 0 0 1 1 0
8
0 1 1 0 0 1 0 1
8
0 1 0 1 0 1 1 0
8
0 1 1 0 1 0 0 1
8
0 1 1 0 0 1 0 1
8
0 1 0 1 1 0 0 1
4
0 1 0 1
8
1 0 1 0 0 1 1 0
8
1 0 1 0 0 1 0 1
8
0.5994697020557856 0.40053029794421435 0.723246266615629 0.276753733384371 0.38611883737558006 0.6138811626244199 0.1838256618958291 0.8161743381041708
8
1 0 1 0 1 0 1 0
8
0 1 0 1 0 1 1 0
8
1 0 0 1 1 0 1 0
8
0 1 0 1 1 0 1 0
8
0 1 1 0 1 0 0 1
8
1 0 0 1 1 0 1 0
8
0 1 1 0 0 1 1 0
8
0 1 0 1 0 1 0 1
8
1 0 1 0 1 0 0 1
8
1 0 1 0 1 0 0 1
8
0 1 0 1 0 1 0 1
8
1 0 0 1 1 0 0 1
8
0 1 0 1 1 0 1 0
8
1 0 0 1 1 0 1 0
4
0 1 1 0
8
0 1 1 0 0 1 1 0
8
0.04915319945189035 0.9508468005481097 0.9011511134370724 0.09884888656292762 0.1123487584552438 0.8876512415447562 0.4407201117859626 0.5592798882140374
8
1 0 0 1 1 0 1 0
8
0 1 1 0 0 1 1 0
8
1 0 0 1 1 0 0 1
8
1 0 0 1 1 0 1 0
8
1 0 1 0 1 0 1 0
8
0 1 1 0 0 1 0 1
8
0.4228793616613818 0.5771206383386183 0.19471614077588675 0.8052838592241133 0.9054121177173212 0.09458788228267875 0.5197503218826736 0.4802496781173265
8
0 1 1 0 0 1 0 1
8
0.4939124891917691 0.506087510808231 0.8943384373659958 0.10566156263400418 0.8499995478262277 0.15000045217377236 0.5770366720393834 0.42296332796061664
8
1 0 0 1 1 0 1 0
8
1 0 0 1 1 0 1 0
8
1 0 1 0 1 0 1 0
8
0 1 0 1 1 0 0 1
8
1 0 0 1 1 0 1 0
8
1 0 1 0 1 0 0 1
4
0 1 0 1
8
1 0 0 1 1 0 0 1
8
1 0 1 0 0 1 1 0
8
1 0 0 1 1 0 0 1
8
1 0 1 0 0 1 1 0
8
0 1 1 0 0 1 1 0
8
0 1 0 1 1 0 0 1
8
0 1 1 0 0 1 0 1
8
1 0 0 1 1 0 1 0
8
0 1 1 0 1 0 0 1
8
0 1 1 0 1 0 0 1
8
0 1 0 1 1 0 0 1
8
0 1 1 0 1 0 0 1
8
1 0 1 0 0 1 0 1
8
0 1 1 0 0 1 1 0
8
0 1 0 1 0 1 0 1
8
0 1 0 1 0 1 0 1
8
0 1 1 0 1 0 0 1
4
0.6261833077890142 0.3738166922109858 0.39622959440364525 0.6037704055963548
8
0 1 1 0 1 0 0 1
8
1 0 1 0 1 0 1 0
8
1 0 0 1 0 1 1 0
8
0.63711284275389 0.36288715724611004 0.317703821178342 0.6822961788216579 0.07393986831915574 0.9260601316808442 0.5325843711389349 0.467415628861065
8
1 0 0 1 1 0 1 0
8
0.279418438022737 0.720581561977263 0.8525838138085997 0.14741618619140032 0.5026949913636551 0.4973050086363449 0.4152310179845475 0.5847689820154526
8
1 0 1 0 0 1 1 0
8
1 0 0 1 0 1 1 0
8
0 1 0 1 1 0 0 1
8
0 1 0 1 0 1 1 0
8
0 1 0 1 1 0 0 1
8
0 1 0 1 0 1 0 1
8
1 0 1 0 0 1 0 1
8
1 0 0 1 0 1 0 1
8
1 0 1 0 0 1 0 1
8
1 0 0 1 1 0 0 1
8
1 0 1 0 1 0 1 0
4
0 1 0 1
8
0 1 1 0 0 1 0 1
8
0.5266330591084789 0.473366940891521 0.029640537328508795 0.9703594626714912 0.4798231091607303 0.5201768908392695 0.3882183385718305 0.6117816614281695
8
0 1 0 1 0 1 0 1
8
1 0 1 0 0 1 1 0
8
1 0 0 1 0 1 0 1
8
0.44464580489736505 0.555354195102635 0.9468678281948839 0.05313217180511608 0.3436405179843209 0.6563594820156791 0.19426422288491094 0.805735777115089
8
0.5364617808777588 0.4635382191222412 0.6132537697589896 0.3867462302410104 0.10121276379057802 0.8987872362094219 0.7634228609279775 0.23657713907202244
8
1 0 0 1 1 0 1 0
8
0 1 0 1 0 1 0 1
8
1 0 1 0 0 1 0 1
8
1 0 0 1 1 0 1 0
8
1 0 0 1 0 1 1 0
8
1 0 0 1 0 1 0 1
8
1 0 0 1 0 1 1 0
8
0 1 1 0 0 1 1 0
8
0.17539473944299233 0.8246052605570077 0.3426227114638157 0.6573772885361844 0.4622015606066494 0.5377984393933506 0.5027863052336933 0.4972136947663067
8
1 0 0 1 1 0 0 1
4
0 1 1 0
8
0 1 1 0 0 1 1 0
8
0 1 1 0 0 1 0 1
8
1 0 1 0 0 1 0 1
8
0 1 0 1 1 0 0 1
8
1 0 1 0 0 1 1 0
8
0 1 0 1 1 0 0 1
8
0 1 0 1 1 0 0 1
8
0 1 0 1 0 1 0 1
8
1 0 0 1 0 1 0 1
8
1 0 1 0 0 1 0 1
8
1 0 0 1 1 0 0 1
8
0 1 1 0 0 1 0 1
8
1 0 1 0 1 0 1 0
8
0 1 0 1 1 0 0 1
8
1 0 1 0 0 1 1 0
8
0 1 0 1 0 1 0 1
8
1 0 1 0 0 1 0 1
4
0 1 0 1
8
0 1 1 0 0 1 1 0
8
1 0 1 0 0 1 0 1
8
0 1 1 0 0 1 0 1
8
0 1 1 0 0 1 1 0
8
0 1 0 1 1 0 0 1
8
0.15343126373909272 0.8465687362609073 0.5872621189951017 0.41273788100489833 0.4676252540143802 0.5323747459856197 0.5759441824272553 0.4240558175727447
8
0 1 1 0 1 0 0 1
8
0.7293293953693447 0.27067060463065534 0.6050848536326077 0.39491514636739233 0.31179004297313756 0.6882099570268625 0.3683728931449134 0.6316271068550866
8
1 0 1 0 1 0 1 0
8
1 0 0 1 1 0 0 1
8
1 0 0 1 1 0 0 1
8
0 1 1 0 0 1 0 1
8
0 1 0 1 0 1 0 1
8
1 0 0 1 1 0 1 0
8
0 1 0 1 0 1 1 0
8
1 0 1 0 0 1 1 0
8
1 0 0 1 1 0 0 1
4
1 0 1 0
8
1 0 1 0 1 0 0 1
8
1 0 0 1 0 1 0 1
8
1 0 1 0 0 1 1 0
8
1 0 0 1 1 0 1 0
8
1 0 0 1 1 0 1 0
8
1 0 1 0 1 0 0 1
8
0 1 1 0 0 1 0 1
8
1 0 1 0 1 0 1 0
8
1 0 0 1 0 1 0 1
8
1 0 1 0 0 1 1 0
8
0.447211537554668 0.552788462445332 0.5519546358084845 0.4480453641915155 0.22817622250306704 0.771823777496933 0.025477963773019634 0.9745220362269804
8
1 0 1 0 1 0 0 1
8
0 1 0 1 0 1 0 1
8
0 1 1 0 0 1 1 0
8
1 0 0 1 1 0 0 1
8
0 1 1 0 0 1 0 1
8
1 0 1 0 1 0 0 1
4
1 0 1 0
8
1 0 1 0 0 1 0 1
8
1 0 0 1 0 1 0 1
8
0 1 0 1 1 0 0 1
8
0 1 1 0 1 0 1 0
8
0 1 1 0 0 1 0 1
8
1 0 0 1 0 1 0 1
8
0.7962924131805688 0.2037075868194312 0.8003813675416164 0.19961863245838363 0.2852977626778721 0.7147022373221279 0.8283751952116316 0.17162480478836833
8
0 1 0 1 1 0 0 1
8
1 0 1 0 1 0 1 0
8
1 0 1 0 0 1 0 1
8
1 0 0 1 0 1 1 0
8
0 1 0 1 0 1 1 0
8
1 0 0 1 0 1 1 0
8
0 1 0 1 1 0 0 1
8
0.3758196933608919 0.6241803066391082 0.4259013597487615 0.5740986402512386 0.3133647171460193 0.6866352828539807 0.7961334729776308 0.2038665270223692
8
1 0 1 0 0 1 0 1
8
1 0 0 1 1 0 0 1
4
0.5280551951345066 0.4719448048654934 0.07242104015324345 0.9275789598467565
4
0 1 0 1
4
1 0 0 1
4
0 1 1 0
4
0 1 1 0
4
0 1 0 1
4
0 1 0 1
4
0 1 0 1
4
0.855297155178397 0.14470284482160295 0.645947150820962 0.354052849179038
4
0 1 0 1
4
0 1 0 1
4
0 1 0 1
4
1 0 0 1
4
1 0 0 1
4
1 0 1 0
4
1 0 1 0
4
0 1 0 1
4
1 0 0 1
2
0 1
